
&control
    calculation='scf'
    restart_mode='from_scratch',
    pseudo_dir = '/home/nico-sachs/source/q-e/SSSP_1.3.0_PBE_efficiency',
    prefix='inas',
    outdir='/home/nico-sachs/source/q-e/tempdir/'
    tprnfor = .true.
    tstress = .true.
 /    
&SYSTEM
  ibrav = 2
  A = 6.04800
  nat = 2
  ntyp = 2
  ecutwfc = 50
  ecutrho = 212
  occupations = 'fixed'
/

ATOMIC_SPECIES
  In  114.81800  In.pbe-dn-rrkjus_psl.0.2.2.UPF
  As   74.92100  As.pbe-n-rrkjus_psl.0.2.UPF

ATOMIC_POSITIONS {crystal}
  In  0.00000000  0.00000000  0.00000000 
  As  0.25000000  0.25000000  0.25000000
