
&control
    calculation='scf'
    restart_mode='from_scratch',
    pseudo_dir = '/home/nico-sachs/source/q-e/SSSP_1.3.0_PBE_efficiency',
    prefix='inas',
    outdir='/home/nico-sachs/source/q-e/tempdir/'
    tprnfor = .true.
    tstress = .true.
 /    
&SYSTEM
  ibrav = 2
  A = 6.04800
  nat = 2
  ntyp = 2
  ecutwfc = 130.0
  ecutrho = 212
  occupations = 'fixed'
/
 &electrons
    diagonalization='cg'
    mixing_beta = 0.7
/

ATOMIC_SPECIES
  In  114.81800  In.pbe-dn-rrkjus_psl.0.2.2.UPF
  As   74.92100  As.pbe-n-rrkjus_psl.0.2.UPF

ATOMIC_POSITIONS {crystal}
  In  0.00000000  0.00000000  0.00000000 
  As  0.25000000  0.25000000  0.25000000
K_POINTS
  60
   0.0625000  0.0625000  0.0625000   1.00
   0.0625000  0.0625000  0.1875000   3.00
   0.0625000  0.0625000  0.3125000   3.00
   0.0625000  0.0625000  0.4375000   3.00
   0.0625000  0.0625000  0.5625000   3.00
   0.0625000  0.0625000  0.6875000   3.00
   0.0625000  0.0625000  0.8125000   3.00
   0.0625000  0.0625000  0.9375000   3.00
   0.0625000  0.1875000  0.1875000   3.00
   0.0625000  0.1875000  0.3125000   6.00
   0.0625000  0.1875000  0.4375000   6.00
   0.0625000  0.1875000  0.5625000   6.00
   0.0625000  0.1875000  0.6875000   6.00
   0.0625000  0.1875000  0.8125000   6.00
   0.0625000  0.1875000  0.9375000   6.00
   0.0625000  0.3125000  0.3125000   3.00
   0.0625000  0.3125000  0.4375000   6.00
   0.0625000  0.3125000  0.5625000   6.00
   0.0625000  0.3125000  0.6875000   6.00
   0.0625000  0.3125000  0.8125000   6.00
   0.0625000  0.3125000  0.9375000   6.00
   0.0625000  0.4375000  0.4375000   3.00
   0.0625000  0.4375000  0.5625000   6.00
   0.0625000  0.4375000  0.6875000   6.00
   0.0625000  0.4375000  0.8125000   6.00
   0.0625000  0.4375000  0.9375000   6.00
   0.0625000  0.5625000  0.5625000   3.00
   0.0625000  0.5625000  0.6875000   6.00
   0.0625000  0.5625000  0.8125000   6.00
   0.0625000  0.6875000  0.6875000   3.00
   0.0625000  0.6875000  0.8125000   6.00
   0.0625000  0.8125000  0.8125000   3.00
   0.1875000  0.1875000  0.1875000   1.00
   0.1875000  0.1875000  0.3125000   3.00
   0.1875000  0.1875000  0.4375000   3.00
   0.1875000  0.1875000  0.5625000   3.00
   0.1875000  0.1875000  0.6875000   3.00
   0.1875000  0.1875000  0.8125000   3.00
   0.1875000  0.3125000  0.3125000   3.00
   0.1875000  0.3125000  0.4375000   6.00
   0.1875000  0.3125000  0.5625000   6.00
   0.1875000  0.3125000  0.6875000   6.00
   0.1875000  0.3125000  0.8125000   6.00
   0.1875000  0.4375000  0.4375000   3.00
   0.1875000  0.4375000  0.5625000   6.00
   0.1875000  0.4375000  0.6875000   6.00
   0.1875000  0.4375000  0.8125000   6.00
   0.1875000  0.5625000  0.5625000   3.00
   0.1875000  0.5625000  0.6875000   6.00
   0.1875000  0.6875000  0.6875000   3.00
   0.3125000  0.3125000  0.3125000   1.00
   0.3125000  0.3125000  0.4375000   3.00
   0.3125000  0.3125000  0.5625000   3.00
   0.3125000  0.3125000  0.6875000   3.00
   0.3125000  0.4375000  0.4375000   3.00
   0.3125000  0.4375000  0.5625000   6.00
   0.3125000  0.4375000  0.6875000   6.00
   0.3125000  0.5625000  0.5625000   3.00
   0.4375000  0.4375000  0.4375000   1.00
   0.4375000  0.4375000  0.5625000   3.00
