#************************************************************************************
#*                   Generated by cif2cell 2.1.0 2026-01-26 14:47                   *
#*  T. Bjorkman, Comp. Phys. Commun. 182, 1183-1186 (2011). Please cite generously. *
#*                                                                                  *
#*                Data obtained from ICSD. Reference number : 43359                 *
#*                                    Ga As   ()                                    *
#*       Failed to get author information, Kristallografiya 7, 850-853 (1962)       *
#************************************************************************************

&SYSTEM
  ibrav = 0
  A =    5.65317
  nat = 2
  ntyp = 2
/
CELL_PARAMETERS {alat}
  0.500000000000000   0.500000000000000   0.000000000000000 
  0.500000000000000   0.000000000000000   0.500000000000000 
  0.000000000000000   0.500000000000000   0.500000000000000 
ATOMIC_SPECIES
  Ga   69.72300  Ga_PSEUDO
  As   74.92100  As_PSEUDO
ATOMIC_POSITIONS {crystal}
As   0.250000000000000   0.250000000000000   0.250000000000000 
Ga   0.000000000000000   0.000000000000000   0.000000000000000 
