
 &control
    calculation='scf'
    restart_mode = 'from_scratch',
    pseudo_dir = '/home/nico-sachs/source/q-e/Pseudofolder/nc-sr-04_pbesol_standard_upf',
    outdir='/home/nico-sachs/source/q-e/tempdir/'
    prefix = 'inasPBEsol',
    tprnfor = .true.,
    tstress = .true.,
    forc_conv_thr = 1.0d-7,  
    verbosity   = 'high'
 /    
&SYSTEM
  ibrav = 2
  celldm(1)= 11.507754735
  nat = 2
  ntyp = 2
  ecutwfc = 100
  ecutrho = 600
  occupations = 'fixed'
  nbnd = 16
/
 &electrons
    diagonalization='cg'
    mixing_beta = 0.7
/

ATOMIC_SPECIES
  In  114.81800  In.upf
  As   74.92100  As.upf

ATOMIC_POSITIONS {crystal}
  In  0.00000000  0.00000000  0.00000000 
  As  0.25000000  0.25000000  0.25000000
K_POINTS automatic

20 20 20 1 1 1 
