
&SYSTEM
  ibrav = 2
  celldm(1) =    10.295227186
  nat = 2
  ntyp = 2
/
ATOMIC_SPECIES
   P   30.97300   P_PSEUDO
  Ga   69.72300  Ga_PSEUDO
  
ATOMIC_POSITIONS {crystal}
Ga   0.000000000000000   0.000000000000000   0.000000000000000 
 P   0.250000000000000   0.250000000000000   0.250000000000000 
