&inputph
  prefix = 'gaasPBEsol',
  outdir='/home/sachs/software/q-e/tempdir/'
  fildyn = 'gaasPBEsol.dynG',
  tr2_ph = 1.0d-12,
  epsil = .true.,
  lraman =.false.,
  asr = .true.,
  amass(1) = 69.723,
  amass(2) = 74.921,
  alpha_mix(1)=0.3


  ldisp = .false.
/
0.0 0.0 0.0



