&control
    calculation='scf'
    restart_mode='from_scratch',
    pseudo_dir = '/home/sachs/software/q-e/Pseudofolder/nc-sr-04_pbesol_standard_upf',
    outdir='/home/sachs/software/q-e/tempdir/'
    prefix='gan',
    tprnfor = .true.
    tstress = .true.
    verbosity   = 'high'
 /    
&SYSTEM
    ibrav = 4
    celldm(1)=6.016209127
    celldm(3)=1.626445567
    nat = 4
    ntyp = 2
    ecutwfc = 100
    ecutrho = 600
    nbnd = 20
/                             
 &electrons
    diagonalization='cg'
    mixing_beta = 0.7
/                             

ATOMIC_SPECIES
 Ga  69.723  Ga.upf
 N   14.007  N.upf

ATOMIC_POSITIONS {crystal}
Ga  0.333333333  0.666666667  0.000000000
Ga  0.666666667  0.333333333  0.500000000
N   0.333333333  0.666666667  0.375000000
N   0.666666667  0.333333333  0.875000000

K_POINTS {automatic}
 24 24 15 1 1 1
