&inputph
  prefix = 'gaasLDA',
  outdir='/home/sachs/software/q-e/tempdir/'
  fildyn = 'gaasLDA.dynG',


  tr2_ph = 1.0d-14,
  epsil = .true.,


  asr = .true.,


  amass(1) = 69.723,
  amass(2) = 74.921,


  ldisp = .false.
/
0.0 0.0 0.0



