&control
    calculation='scf'
    restart_mode='from_scratch',
    pseudo_dir = '/home/nico-sachs/source/q-e/SSSP_1.3.0_PBE_efficiency',
    prefix='gan',
    outdir='/home/nico-sachs/source/q-e/tempdir/'
    tprnfor = .true.
    tstress = .true.
 /    
&SYSTEM
    ibrav = 4
    A = 3.189
    C = 5.185
    nat = 4
    ntyp = 2
    ecutwfc = 90
    ecutrho = 288.8888888888889
/                             
 &electrons
    diagonalization='cg'
    mixing_beta = 0.7
/                             

ATOMIC_SPECIES
 Ga  69.723  Ga.pbe-dn-kjpaw_psl.1.0.0.UPF
 N   14.007  N.pbe-n-radius_5.UPF

ATOMIC_POSITIONS {crystal}
Ga  0.333333333  0.666666667  0.000000000
Ga  0.666666667  0.333333333  0.500000000
N   0.333333333  0.666666667  0.375000000
N   0.666666667  0.333333333  0.875000000

K_POINTS {automatic}
 6 6 4 0 0 0
