 &control
    calculation='scf'
    restart_mode='from_scratch',
    pseudo_dir = '/home/nico-sachs/source/q-e/SSSP_1.3.0_PBE_efficiency',
    outdir='/home/nico-sachs/source/q-e/tempdir/',
    prefix='al'
    tprnfor = .true.
    tstress = .true.
 /    
 &system
  ibrav = 0, A =    5.65317, nat = 2, ntyp = 2, ecutwfc =50.0, ecutrho = 250.0
    occupations='smearing', smearing='marzari-vanderbilt', degauss=0.05
/
 &electrons
    diagonalization='cg'
    mixing_beta = 0.7
 /
CELL_PARAMETERS {alat}
  0.500000000000000   0.500000000000000   0.000000000000000 
  0.500000000000000   0.000000000000000   0.500000000000000 
  0.000000000000000   0.500000000000000   0.500000000000000 
ATOMIC_SPECIES
  Ga   69.72300  Ga.pbe-dn-kjpaw_psl.1.0.0.UPF
  As   74.92100  Al.pbe-n-kjpaw_psl.1.0.0.UPF
ATOMIC_POSITIONS {crystal}
As   0.250000000000000   0.250000000000000   0.250000000000000 
Ga   0.000000000000000   0.000000000000000   0.000000000000000 
K_POINTS
  60
   0.0625000  0.0625000  0.0625000   1.00
   0.0625000  0.0625000  0.1875000   3.00
   0.0625000  0.0625000  0.3125000   3.00
   0.0625000  0.0625000  0.4375000   3.00
   0.0625000  0.0625000  0.5625000   3.00
   0.0625000  0.0625000  0.6875000   3.00
   0.0625000  0.0625000  0.8125000   3.00
   0.0625000  0.0625000  0.9375000   3.00
   0.0625000  0.1875000  0.1875000   3.00
   0.0625000  0.1875000  0.3125000   6.00
   0.0625000  0.1875000  0.4375000   6.00
   0.0625000  0.1875000  0.5625000   6.00
   0.0625000  0.1875000  0.6875000   6.00
   0.0625000  0.1875000  0.8125000   6.00
   0.0625000  0.1875000  0.9375000   6.00
   0.0625000  0.3125000  0.3125000   3.00
   0.0625000  0.3125000  0.4375000   6.00
   0.0625000  0.3125000  0.5625000   6.00
   0.0625000  0.3125000  0.6875000   6.00
   0.0625000  0.3125000  0.8125000   6.00
   0.0625000  0.3125000  0.9375000   6.00
   0.0625000  0.4375000  0.4375000   3.00
   0.0625000  0.4375000  0.5625000   6.00
   0.0625000  0.4375000  0.6875000   6.00
   0.0625000  0.4375000  0.8125000   6.00
   0.0625000  0.4375000  0.9375000   6.00
   0.0625000  0.5625000  0.5625000   3.00
   0.0625000  0.5625000  0.6875000   6.00
   0.0625000  0.5625000  0.8125000   6.00
   0.0625000  0.6875000  0.6875000   3.00
   0.0625000  0.6875000  0.8125000   6.00
   0.0625000  0.8125000  0.8125000   3.00
   0.1875000  0.1875000  0.1875000   1.00
   0.1875000  0.1875000  0.3125000   3.00
   0.1875000  0.1875000  0.4375000   3.00
   0.1875000  0.1875000  0.5625000   3.00
   0.1875000  0.1875000  0.6875000   3.00
   0.1875000  0.1875000  0.8125000   3.00
   0.1875000  0.3125000  0.3125000   3.00
   0.1875000  0.3125000  0.4375000   6.00
   0.1875000  0.3125000  0.5625000   6.00
   0.1875000  0.3125000  0.6875000   6.00
   0.1875000  0.3125000  0.8125000   6.00
   0.1875000  0.4375000  0.4375000   3.00
   0.1875000  0.4375000  0.5625000   6.00
   0.1875000  0.4375000  0.6875000   6.00
   0.1875000  0.4375000  0.8125000   6.00
   0.1875000  0.5625000  0.5625000   3.00
   0.1875000  0.5625000  0.6875000   6.00
   0.1875000  0.6875000  0.6875000   3.00
   0.3125000  0.3125000  0.3125000   1.00
   0.3125000  0.3125000  0.4375000   3.00
   0.3125000  0.3125000  0.5625000   3.00
   0.3125000  0.3125000  0.6875000   3.00
   0.3125000  0.4375000  0.4375000   3.00
   0.3125000  0.4375000  0.5625000   6.00
   0.3125000  0.4375000  0.6875000   6.00
   0.3125000  0.5625000  0.5625000   3.00
   0.4375000  0.4375000  0.4375000   1.00
   0.4375000  0.4375000  0.5625000   3.00
