&control
    calculation = 'vc-relax' 
    restart_mode='from_scratch',
    pseudo_dir = '/home/sachs/software/q-e/Pseudofolder/nc-sr-04_pbesol_standard_upf',
    outdir='/home/sachs/software/q-e/tempdir/'
    prefix='gan'
    tprnfor = .true.
    tstress = .true.
    forc_conv_thr = 1.0d-6,  
 /    
&SYSTEM
    ibrav = 4
    celldm(1) = 6.0263361776
    celldm(3) = 1.625901537
    nat = 4
    ntyp = 2
    ecutwfc = 100
    ecutrho = 600
/                             
 &electrons
    diagonalization='cg'
    mixing_beta = 0.7
    
/
 &ions
    ion_dynamics = 'bfgs',   
 /
 &cell
    cell_dynamics = 'bfgs',  
/                             

ATOMIC_SPECIES
 Ga  69.723  Ga.upf
 N   14.007  N.upf

ATOMIC_POSITIONS {crystal}
Ga  0.333333333  0.666666667  0.000000000
Ga  0.666666667  0.333333333  0.500000000
N   0.333333333  0.666666667  0.375000000
N   0.666666667  0.333333333  0.875000000

K_POINTS {automatic}
 24 24 15 1 1 1
