 &control
    calculation='scf'
    restart_mode='from_scratch',
    pseudo_dir = '/home/nico-sachs/source/q-e/SSSP_1.3.0_PBE_efficiency',
    prefix='gaas',
    outdir='/home/nico-sachs/source/q-e/tempdir/'
    tprnfor = .true.
    tstress = .true.
 /    
 &system
  &system
  ibrav = 2
  celldm(1) = 10.684   ! 5.65317 Å in Bohr
  nat = 2
  ntyp = 2
  ecutwfc = 50
  ecutrho = 212
  occupations = 'fixed'

/
 &electrons
    diagonalization='cg'
    mixing_beta = 0.7
 /
CELL_PARAMETERS {alat}
  0.500000000000000   0.500000000000000   0.000000000000000 
  0.500000000000000   0.000000000000000   0.500000000000000 
  0.000000000000000   0.500000000000000   0.500000000000000 
ATOMIC_SPECIES
  Ga   69.72300  Ga.pbe-dn-kjpaw_psl.1.0.0.UPF
  As   74.92100  As.pbe-n-rrkjus_psl.0.2.UPF
ATOMIC_POSITIONS crystal
Ga 0.00 0.00 0.00
As 0.25 0.25 0.25

K_POINTS
  60
   0.0625000  0.0625000  0.0625000   1.00
   0.0625000  0.0625000  0.1875000   3.00
   0.0625000  0.0625000  0.3125000   3.00
   0.0625000  0.0625000  0.4375000   3.00
   0.0625000  0.0625000  0.5625000   3.00
   0.0625000  0.0625000  0.6875000   3.00
   0.0625000  0.0625000  0.8125000   3.00
   0.0625000  0.0625000  0.9375000   3.00
   0.0625000  0.1875000  0.1875000   3.00
   0.0625000  0.1875000  0.3125000   6.00
   0.0625000  0.1875000  0.4375000   6.00
   0.0625000  0.1875000  0.5625000   6.00
   0.0625000  0.1875000  0.6875000   6.00
   0.0625000  0.1875000  0.8125000   6.00
   0.0625000  0.1875000  0.9375000   6.00
   0.0625000  0.3125000  0.3125000   3.00
   0.0625000  0.3125000  0.4375000   6.00
   0.0625000  0.3125000  0.5625000   6.00
   0.0625000  0.3125000  0.6875000   6.00
   0.0625000  0.3125000  0.8125000   6.00
   0.0625000  0.3125000  0.9375000   6.00
   0.0625000  0.4375000  0.4375000   3.00
   0.0625000  0.4375000  0.5625000   6.00
   0.0625000  0.4375000  0.6875000   6.00
   0.0625000  0.4375000  0.8125000   6.00
   0.0625000  0.4375000  0.9375000   6.00
   0.0625000  0.5625000  0.5625000   3.00
   0.0625000  0.5625000  0.6875000   6.00
   0.0625000  0.5625000  0.8125000   6.00
   0.0625000  0.6875000  0.6875000   3.00
   0.0625000  0.6875000  0.8125000   6.00
   0.0625000  0.8125000  0.8125000   3.00
   0.1875000  0.1875000  0.1875000   1.00
   0.1875000  0.1875000  0.3125000   3.00
   0.1875000  0.1875000  0.4375000   3.00
   0.1875000  0.1875000  0.5625000   3.00
   0.1875000  0.1875000  0.6875000   3.00
   0.1875000  0.1875000  0.8125000   3.00
   0.1875000  0.3125000  0.3125000   3.00
   0.1875000  0.3125000  0.4375000   6.00
   0.1875000  0.3125000  0.5625000   6.00
   0.1875000  0.3125000  0.6875000   6.00
   0.1875000  0.3125000  0.8125000   6.00
   0.1875000  0.4375000  0.4375000   3.00
   0.1875000  0.4375000  0.5625000   6.00
   0.1875000  0.4375000  0.6875000   6.00
   0.1875000  0.4375000  0.8125000   6.00
   0.1875000  0.5625000  0.5625000   3.00
   0.1875000  0.5625000  0.6875000   6.00
   0.1875000  0.6875000  0.6875000   3.00
   0.3125000  0.3125000  0.3125000   1.00
   0.3125000  0.3125000  0.4375000   3.00
   0.3125000  0.3125000  0.5625000   3.00
   0.3125000  0.3125000  0.6875000   3.00
   0.3125000  0.4375000  0.4375000   3.00
   0.3125000  0.4375000  0.5625000   6.00
   0.3125000  0.4375000  0.6875000   6.00
   0.3125000  0.5625000  0.5625000   3.00
   0.4375000  0.4375000  0.4375000   1.00
   0.4375000  0.4375000  0.5625000   3.00
