&input
  fildyn='gan.dynG',
  zasr='crystal',
  flfrc='gan.fc'
 /
