&input
   fildyn='inas.dynG'
   asr='crystal'
   q(1)=0.0
   q(2)=0.0
   q(3)=1.0
   filout='inas.mode'
 /
